 $SYSTEM MWORDS=125 $END
 $GDDI NGROUP=1 $END
 $SCF CONV=1E-7 DIRSCF=.T. NPUNCH=0 DIIS=.F. SOSCF=.T. $END
 $CONTRL NPRINT=-5 ISPHER=1 LOCAL=BOYS
         RUNTYP=ENERGY
 $END
 $BASIS GBASIS=N21 NGAUSS=3 $END
 $FMO
      NBODY=2
      RAFO(1)=1,1,1
      RESDIM=2.0 RCORSD=2.0
      NLAYER=1
      NFRAG=9
      ICHARG(1)=  1, -1,  0, -1,  0,  0,  0,  0, -1
      FRGNAM(1)=AMINO001, AMINO002, AMINO003, AMINO004, AMINO005,
                 AMINO006, AMINO007, AMINO008, AMINO009
      MPLEVL(1)=0
      INDAT(1)=0
                1    -11     14    -30      0
               12     13     31     32     35    -42      0
               33     34     43     44     47    -56      0
               45     46     57     58     61    -71      0
               59     60     72     73     76    -85      0
               74     75     86     87     90    -92      0
               88     89     93     94     97   -106      0
               95     96    107    108    111   -130      0
              109    110    131   -138      0



 $END
 $FMOPRP NPRINT=9 NGUESS=6 NGRFMO(1)=1 $END
 $FMOBND
       -11        12
       -32        33
       -44        45
       -58        59
       -73        74
       -87        88
       -94        95
      -108       109
 $END
 $DATA

c1
H-1 1
C-1 6
O-1 8
N-1 7
 $END
 $FMOXYZ
      1      N        -5.951000    -1.936000     4.305000
      2      C        -6.226000    -0.997000     3.208000
      3      C        -5.478000    -1.384000     1.934000
      4      O        -5.003000    -2.515000     1.802000
      5      H        -4.908000    -2.006000     4.501000
      6      H        -6.055000    -2.927000     4.054000
      7      H        -6.336000    -1.763000     5.231000
      8      H        -7.302000    -1.033000     3.018000
      9      H        -5.927000    -0.001000     3.544000
     10      N        -5.414000    -0.419000     0.951000
     11      C        -4.215000    -0.358000     0.082000
     12      C        -3.386000     0.703000     0.809000
     13      O        -3.893000     1.801000     1.062000
     14      C        -4.539000     0.149000    -1.324000
     15      C        -3.351000     0.092000    -2.257000
     16      C        -3.020000    -1.104000    -2.907000
     17      C        -2.548000     1.223000    -2.470000
     18      C        -1.941000    -1.159000    -3.788000
     19      C        -1.459000     1.166000    -3.344000
     20      C        -1.178000    -0.022000    -4.008000
     21      O        -0.156000    -0.106000    -4.906000
     22      H        -5.739000     0.514000     1.197000
     23      H        -3.705000    -1.323000     0.066000
     24      H        -5.353000    -0.443000    -1.757000
     25      H        -4.925000     1.178000    -1.296000
     26      H        -3.600000    -2.005000    -2.733000
     27      H        -2.759000     2.158000    -1.954000
     28      H        -1.688000    -2.088000    -4.290000
     29      H        -0.852000     2.052000    -3.501000
     30      H         0.503000     0.570000    -4.679000
     31      N        -2.178000     0.286000     1.290000
     32      C        -1.266000     1.230000     1.934000
     33      C        -0.297000     1.730000     0.824000
     34      O         0.364000     0.941000     0.136000
     35      C        -0.526000     0.544000     3.069000
     36      C         0.168000     1.742000     3.680000
     37      O        -0.493000     2.351000     4.564000
     38      O         1.262000     2.047000     3.127000
     39      H        -1.721000    -0.528000     0.863000
     40      H        -1.871000     2.051000     2.325000
     41      H        -1.212000     0.074000     3.782000
     42      H         0.192000    -0.206000     2.724000
     43      N        -0.257000     3.087000     0.578000
     44      C         0.627000     3.656000    -0.428000
     45      C         2.047000     4.041000     0.050000
     46      O         2.818000     4.613000    -0.724000
     47      C        -0.126000     4.915000    -0.861000
     48      C        -0.737000     5.401000     0.450000
     49      C        -1.111000     4.109000     1.166000
     50      H         0.751000     2.957000    -1.262000
     51      H         0.500000     5.675000    -1.335000
     52      H        -0.928000     4.645000    -1.561000
     53      H         0.013000     5.951000     1.031000
     54      H        -1.596000     6.060000     0.297000
     55      H        -0.950000     4.174000     2.245000
     56      H        -2.155000     3.846000     0.967000
     57      N         2.375000     3.731000     1.347000
     58      C         3.755000     3.846000     1.853000
     59      C         4.527000     2.652000     1.258000
     60      O         5.553000     2.799000     0.590000
     61      C         3.753000     3.885000     3.390000
     62      C         4.989000     4.540000     4.007000
     63      C         6.124000     3.627000     4.478000
     64      O         6.101000     2.434000     4.074000
     65      O         6.965000     4.198000     5.235000
     66      H         1.770000     3.103000     1.898000
     67      H         4.178000     4.768000     1.439000
     68      H         2.883000     4.476000     3.710000
     69      H         3.608000     2.885000     3.812000
     70      H         5.411000     5.290000     3.328000
     71      H         4.655000     5.085000     4.901000
     72      N         3.947000     1.413000     1.467000
     73      C         4.628000     0.206000     1.013000
     74      C         4.310000    -0.081000    -0.469000
     75      O         5.024000    -0.797000    -1.176000
     76      C         4.255000    -1.054000     1.815000
     77      O         2.864000    -1.376000     1.660000
     78      C         4.575000    -0.914000     3.298000
     79      H         3.156000     1.354000     2.114000
     80      H         5.710000     0.378000     1.081000
     81      H         4.819000    -1.904000     1.412000
     82      H         2.724000    -2.231000     2.106000
     83      H         5.622000    -0.639000     3.454000
     84      H         4.386000    -1.860000     3.816000
     85      H         3.935000    -0.165000     3.776000
     86      N         3.064000     0.337000    -0.893000
     87      C         2.567000     0.023000    -2.210000
     88      C         1.936000    -1.369000    -2.315000
     89      O         1.872000    -1.975000    -3.386000
     90      H         2.438000     0.734000    -0.190000
     91      H         1.809000     0.768000    -2.468000
     92      H         3.390000     0.082000    -2.929000
     93      N         1.334000    -1.840000    -1.172000
     94      C         0.610000    -3.110000    -1.133000
     95      C        -0.632000    -3.025000    -0.216000
     96      O        -1.020000    -1.978000     0.304000
     97      C         1.544000    -4.294000    -0.764000
     98      O         2.734000    -3.876000    -0.089000
     99      C         1.947000    -5.093000    -2.000000
    100      H         1.313000    -1.234000    -0.347000
    101      H         0.183000    -3.281000    -2.131000
    102      H         1.053000    -4.989000    -0.078000
    103      H         2.991000    -3.015000    -0.477000
    104      H         1.066000    -5.471000    -2.530000
    105      H         2.569000    -5.948000    -1.714000
    106      H         2.543000    -4.489000    -2.690000
    107      N        -1.374000    -4.189000    -0.122000
    108      C        -2.538000    -4.270000     0.759000
    109      C        -2.027000    -4.691000     2.149000
    110      O        -1.646000    -5.840000     2.371000
    111      C        -3.582000    -5.309000     0.303000
    112      C        -3.897000    -5.277000    -1.165000
    113      C        -3.260000    -6.033000    -2.131000
    114      C        -4.890000    -4.497000    -1.839000
    115      N        -3.780000    -5.702000    -3.350000
    116      C        -4.774000    -4.765000    -3.204000
    117      C        -5.868000    -3.572000    -1.424000
    118      C        -5.562000    -4.133000    -4.174000
    119      C        -6.671000    -2.935000    -2.379000
    120      C        -6.510000    -3.205000    -3.735000
    121      H        -0.968000    -5.073000    -0.393000
    122      H        -2.996000    -3.283000     0.804000
    123      H        -3.245000    -6.325000     0.545000
    124      H        -4.504000    -5.166000     0.883000
    125      H        -2.468000    -6.765000    -2.048000
    126      H        -3.477000    -6.085000    -4.235000
    127      H        -5.990000    -3.343000    -0.371000
    128      H        -5.434000    -4.342000    -5.230000
    129      H        -7.411000    -2.206000    -2.058000
    130      H        -7.124000    -2.685000    -4.466000
    131      N        -1.923000    -3.668000     3.061000
    132      C        -1.819000    -3.932000     4.504000
    133      C        -3.191000    -3.876000     5.211000
    134      O        -3.503000    -4.807000     5.996000
    135      O        -3.922000    -2.883000     4.874000
    136      H        -2.311000    -2.763000     2.822000
    137      H        -1.332000    -4.897000     4.672000
    138      H        -1.191000    -3.141000     4.926000
 $END

