 $SYSTEM MWORDS=125 $END
 $GDDI NGROUP=1 $END
 $SCF CONV=1E-7 DIRSCF=.T. NPUNCH=0 DIIS=.F. SOSCF=.T. $END
 $CONTRL NPRINT=-5 ISPHER=1 LOCAL=BOYS
         RUNTYP=ENERGY
 $END
 $BASIS GBASIS=N21 NGAUSS=3 $END
 $FMO
      NBODY=2
      RAFO(1)=1,1,1
      RESDIM=2.0 RCORSD=2.0
      NLAYER=1
      NFRAG=19
      ICHARG(1)=  1,  0,  0,  0,  0,  0,  1, -1,  0,  0,
                   0,  0,  0,  0,  1,  0,  0,  0, -1
      FRGNAM(1)=AMINO001, AMINO002, AMINO003, AMINO004, AMINO005,
                 AMINO006, AMINO007, AMINO008, AMINO009, AMINO010,
                 AMINO011, AMINO012, AMINO013, AMINO014, AMINO015,
                 AMINO016, AMINO017, AMINO018, AMINO019
      MPLEVL(1)=0
      INDAT(1)=0
                1    -18     21    -35      0
               19     20     36     37     40    -56      0
               38     39     57     58     61    -75      0
               59     60     76     77     80    -92      0
               78     79     93     94     97   -116      0
               95     96    117    118    121   -135      0
              119    120    136    137    140   -157      0
              138    139    158    159    162   -169      0
              160    161    170    171    174   -176      0
              172    173    177    178    181   -183      0
              179    180    184    185    188   -197      0
              186    187    198    199    202   -208      0
              200    201    209    210    213   -219      0
              211    212    220    221    224   -226      0
              222    223    227    228    231   -250      0
              229    230    251    252    255   -264      0
              253    254    265    266    269   -278      0
              267    268    279    280    283   -292      0
              281    282    293   -304      0



 $END
 $FMOPRP NPRINT=9 NGUESS=6 NGRFMO(1)=1 $END
 $FMOBND
       -18        19
       -37        38
       -58        59
       -77        78
       -94        95
      -118       119
      -137       138
      -159       160
      -171       172
      -178       179
      -185       186
      -199       200
      -210       211
      -221       222
      -228       229
      -252       253
      -266       267
      -280       281
 $END
 $DATA

c1
H-1 1
C-1 6
O-1 8
N-1 7
 $END
 $FMOXYZ
      1      N        -9.083000     4.246000    -0.486000
      2      C        -8.789000     3.290000    -1.614000
      3      C        -7.279000     3.119000    -1.827000
      4      O        -6.755000     2.013000    -1.719000
      5      C        -9.507000     3.700000    -2.898000
      6      C       -10.990000     3.638000    -2.653000
      7      O       -11.440000     3.764000    -1.516000
      8      N       -11.782000     3.496000    -3.741000
      9      H        -8.706000     3.909000     0.410000
     10      H        -8.750000     5.205000    -0.635000
     11      H       -10.118000     4.291000    -0.365000
     12      H        -9.173000     2.323000    -1.262000
     13      H        -9.242000     4.718000    -3.203000
     14      H        -9.240000     3.018000    -3.714000
     15      H       -11.457000     3.462000    -4.700000
     16      H       -12.790000     3.480000    -3.608000
     17      N        -6.541000     4.272000    -2.022000
     18      C        -5.098000     4.170000    -2.344000
     19      C        -4.323000     3.293000    -1.329000
     20      O        -3.616000     2.352000    -1.686000
     21      C        -4.453000     5.557000    -2.530000
     22      C        -4.823000     6.624000    -1.470000
     23      C        -3.622000     6.991000    -0.598000
     24      C        -5.359000     7.889000    -2.147000
     25      H        -6.996000     5.074000    -2.443000
     26      H        -5.042000     3.633000    -3.301000
     27      H        -3.363000     5.442000    -2.592000
     28      H        -4.769000     5.917000    -3.519000
     29      H        -5.613000     6.258000    -0.806000
     30      H        -3.204000     6.109000    -0.108000
     31      H        -2.833000     7.462000    -1.191000
     32      H        -3.916000     7.697000     0.187000
     33      H        -4.611000     8.332000    -2.813000
     34      H        -6.252000     7.662000    -2.740000
     35      H        -5.638000     8.641000    -1.402000
     36      N        -4.557000     3.561000     0.006000
     37      C        -3.742000     2.877000     1.035000
     38      C        -4.046000     1.352000     1.059000
     39      O        -3.253000     0.510000     1.476000
     40      C        -4.051000     3.476000     2.416000
     41      C        -2.887000     3.397000     3.367000
     42      C        -2.800000     2.360000     4.304000
     43      C        -1.878000     4.371000     3.332000
     44      C        -1.728000     2.305000     5.195000
     45      C        -0.804000     4.314000     4.221000
     46      C        -0.740000     3.282000     5.148000
     47      O         0.289000     3.189000     6.038000
     48      H        -4.789000     4.525000     0.209000
     49      H        -2.691000     3.007000     0.747000
     50      H        -4.322000     4.537000     2.323000
     51      H        -4.931000     2.995000     2.863000
     52      H        -3.566000     1.592000     4.357000
     53      H        -1.917000     5.203000     2.628000
     54      H        -1.663000     1.506000     5.928000
     55      H        -0.044000     5.090000     4.176000
     56      H         0.858000     3.970000     5.925000
     57      N        -5.317000     0.996000     0.645000
     58      C        -5.761000    -0.405000     0.656000
     59      C        -5.034000    -1.194000    -0.464000
     60      O        -4.820000    -2.402000    -0.388000
     61      C        -7.297000    -0.498000     0.460000
     62      C        -8.100000     0.479000     1.351000
     63      C        -7.802000    -1.934000     0.656000
     64      C        -7.905000     0.295000     2.849000
     65      H        -5.762000     1.627000    -0.014000
     66      H        -5.455000    -0.841000     1.614000
     67      H        -7.530000    -0.227000    -0.579000
     68      H        -7.847000     1.513000     1.089000
     69      H        -9.169000     0.371000     1.123000
     70      H        -7.419000    -2.598000    -0.125000
     71      H        -7.495000    -2.342000     1.624000
     72      H        -8.895000    -1.975000     0.599000
     73      H        -8.220000    -0.700000     3.176000
     74      H        -6.862000     0.444000     3.142000
     75      H        -8.510000     1.028000     3.393000
     76      N        -4.754000    -0.469000    -1.606000
     77      C        -4.085000    -1.083000    -2.753000
     78      C        -2.580000    -1.303000    -2.465000
     79      O        -1.903000    -2.059000    -3.155000
     80      C        -4.264000    -0.192000    -3.993000
     81      C        -4.094000    -0.950000    -5.310000
     82      C        -5.276000    -1.847000    -5.599000
     83      O        -5.251000    -3.065000    -5.435000
     84      N        -6.401000    -1.214000    -6.033000
     85      H        -4.756000     0.547000    -1.551000
     86      H        -4.539000    -2.069000    -2.898000
     87      H        -5.256000     0.276000    -3.972000
     88      H        -3.534000     0.626000    -3.966000
     89      H        -4.004000    -0.234000    -6.135000
     90      H        -3.183000    -1.557000    -5.324000
     91      H        -6.357000    -0.284000    -6.431000
     92      H        -7.186000    -1.791000    -6.311000
     93      N        -2.054000    -0.517000    -1.467000
     94      C        -0.696000    -0.715000    -0.944000
     95      C        -0.718000    -1.908000     0.040000
     96      O         0.142000    -2.791000     0.027000
     97      C        -0.213000     0.577000    -0.276000
     98      C         1.161000     0.506000     0.301000
     99      C         2.346000     0.505000    -0.405000
    100      C         1.510000     0.485000     1.689000
    101      N         3.385000     0.438000     0.486000
    102      C         2.901000     0.450000     1.771000
    103      C         0.773000     0.515000     2.889000
    104      C         3.596000     0.452000     2.985000
    105      C         1.451000     0.509000     4.113000
    106      C         2.841000     0.487000     4.158000
    107      H        -2.708000    -0.007000    -0.888000
    108      H        -0.043000    -0.991000    -1.781000
    109      H        -0.239000     1.388000    -1.016000
    110      H        -0.915000     0.885000     0.507000
    111      H         2.548000     0.568000    -1.465000
    112      H         4.374000     0.440000     0.250000
    113      H        -0.311000     0.566000     2.875000
    114      H         4.681000     0.438000     3.010000
    115      H         0.885000     0.548000     5.041000
    116      H         3.344000     0.510000     5.121000
    117      N        -1.751000    -1.923000     0.967000
    118      C        -1.727000    -2.939000     2.022000
    119      C        -1.916000    -4.353000     1.436000
    120      O        -1.371000    -5.336000     1.940000
    121      C        -2.818000    -2.711000     3.075000
    122      C        -2.461000    -1.650000     4.133000
    123      C        -3.682000    -1.380000     5.016000
    124      C        -1.283000    -2.077000     5.013000
    125      H        -2.214000    -1.038000     1.171000
    126      H        -0.724000    -2.924000     2.462000
    127      H        -3.751000    -2.425000     2.571000
    128      H        -3.033000    -3.655000     3.594000
    129      H        -2.194000    -0.716000     3.630000
    130      H        -4.522000    -1.014000     4.416000
    131      H        -4.006000    -2.289000     5.535000
    132      H        -3.457000    -0.622000     5.773000
    133      H        -1.477000    -3.041000     5.495000
    134      H        -0.358000    -2.168000     4.438000
    135      H        -1.100000    -1.338000     5.800000
    136      N        -2.780000    -4.466000     0.360000
    137      C        -3.108000    -5.793000    -0.178000
    138      C        -1.864000    -6.469000    -0.789000
    139      O        -1.820000    -7.671000    -1.036000
    140      C        -4.245000    -5.737000    -1.222000
    141      C        -3.891000    -5.121000    -2.591000
    142      C        -3.334000    -6.142000    -3.598000
    143      C        -2.799000    -5.516000    -4.878000
    144      N        -3.917000    -5.231000    -5.800000
    145      H        -3.365000    -3.664000     0.122000
    146      H        -3.426000    -6.406000     0.674000
    147      H        -4.631000    -6.752000    -1.381000
    148      H        -5.072000    -5.159000    -0.791000
    149      H        -4.808000    -4.694000    -3.018000
    150      H        -3.192000    -4.291000    -2.458000
    151      H        -2.502000    -6.693000    -3.164000
    152      H        -4.103000    -6.891000    -3.824000
    153      H        -2.283000    -4.568000    -4.707000
    154      H        -2.160000    -6.223000    -5.413000
    155      H        -4.506000    -6.051000    -5.962000
    156      H        -4.514000    -4.455000    -5.452000
    157      H        -3.537000    -4.917000    -6.697000
    158      N        -0.904000    -5.572000    -1.201000
    159      C         0.285000    -5.929000    -1.972000
    160      C         1.372000    -6.528000    -1.050000
    161      O         2.394000    -7.045000    -1.500000
    162      C         0.828000    -4.668000    -2.632000
    163      C         1.053000    -4.890000    -4.111000
    164      O         0.075000    -5.334000    -4.772000
    165      O         2.178000    -4.487000    -4.538000
    166      H        -0.972000    -4.616000    -0.864000
    167      H         0.004000    -6.721000    -2.675000
    168      H         0.124000    -3.829000    -2.566000
    169      H         1.759000    -4.330000    -2.159000
    170      N         1.183000    -6.308000     0.298000
    171      C         2.114000    -6.757000     1.318000
    172      C         2.743000    -5.599000     2.100000
    173      O         3.530000    -5.780000     3.030000
    174      H         0.268000    -5.989000     0.605000
    175      H         1.547000    -7.375000     2.021000
    176      H         2.919000    -7.350000     0.874000
    177      N         2.395000    -4.336000     1.680000
    178      C         2.749000    -3.175000     2.466000
    179      C         4.266000    -2.933000     2.422000
    180      O         4.892000    -2.943000     1.354000
    181      H         1.714000    -4.233000     0.931000
    182      H         2.239000    -2.315000     2.033000
    183      H         2.372000    -3.338000     3.477000
    184      N         4.932000    -2.808000     3.627000
    185      C         6.385000    -2.601000     3.661000
    186      C         7.167000    -3.783000     3.065000
    187      O         8.315000    -3.665000     2.640000
    188      C         6.718000    -2.471000     5.151000
    189      C         5.407000    -2.037000     5.790000
    190      C         4.360000    -2.764000     4.963000
    191      H         6.613000    -1.690000     3.097000
    192      H         7.036000    -3.430000     5.579000
    193      H         7.523000    -1.751000     5.329000
    194      H         5.349000    -2.280000     6.854000
    195      H         5.291000    -0.952000     5.681000
    196      H         4.230000    -3.797000     5.304000
    197      H         3.395000    -2.254000     4.985000
    198      N         6.532000    -5.003000     3.145000
    199      C         7.136000    -6.236000     2.652000
    200      C         6.887000    -6.480000     1.148000
    201      O         7.116000    -7.568000     0.624000
    202      C         6.646000    -7.448000     3.457000
    203      O         6.922000    -7.292000     4.854000
    204      H         5.542000    -5.031000     3.392000
    205      H         8.221000    -6.141000     2.779000
    206      H         5.564000    -7.579000     3.349000
    207      H         7.125000    -8.374000     3.122000
    208      H         7.882000    -7.171000     4.949000
    209      N         6.542000    -5.369000     0.409000
    210      C         6.304000    -5.423000    -1.039000
    211      C         7.247000    -4.471000    -1.806000
    212      O         7.156000    -4.250000    -3.014000
    213      C         4.848000    -5.079000    -1.356000
    214      O         4.433000    -5.676000    -2.580000
    215      H         6.238000    -4.529000     0.900000
    216      H         6.538000    -6.430000    -1.404000
    217      H         4.193000    -5.442000    -0.558000
    218      H         4.690000    -3.999000    -1.430000
    219      H         3.762000    -6.356000    -2.344000
    220      N         8.244000    -3.888000    -1.042000
    221      C         9.346000    -3.207000    -1.704000
    222      C         8.933000    -1.852000    -2.289000
    223      O         9.534000    -1.320000    -3.221000
    224      H         8.396000    -4.280000    -0.116000
    225      H        10.134000    -3.041000    -0.964000
    226      H         9.722000    -3.843000    -2.511000
    227      N         7.928000    -1.215000    -1.597000
    228      C         7.364000     0.049000    -2.035000
    229      C         6.933000     0.868000    -0.806000
    230      O         6.346000     0.335000     0.143000
    231      C         6.201000    -0.146000    -3.028000
    232      C         5.161000    -1.195000    -2.603000
    233      C         3.979000    -1.320000    -3.569000
    234      N         3.906000    -2.610000    -4.253000
    235      C         4.704000    -3.131000    -5.181000
    236      N         5.708000    -2.439000    -5.723000
    237      N         4.453000    -4.350000    -5.642000
    238      H         7.474000    -1.718000    -0.839000
    239      H         8.160000     0.589000    -2.556000
    240      H         5.700000     0.815000    -3.199000
    241      H         6.638000    -0.450000    -3.983000
    242      H         5.638000    -2.169000    -2.480000
    243      H         4.770000    -0.917000    -1.620000
    244      H         3.049000    -1.247000    -2.993000
    245      H         3.944000    -0.520000    -4.315000
    246      H         3.110000    -3.252000    -4.072000
    247      H         5.873000    -1.486000    -5.455000
    248      H         6.342000    -2.882000    -6.368000
    249      H         3.599000    -4.798000    -5.257000
    250      H         5.049000    -4.870000    -6.257000
    251      N         7.188000     2.220000    -0.823000
    252      C         6.853000     3.061000     0.327000
    253      C         5.336000     3.316000     0.376000
    254      O         4.612000     3.103000    -0.603000
    255      C         7.623000     4.358000     0.076000
    256      C         7.683000     4.440000    -1.446000
    257      C         7.852000     2.988000    -1.865000
    258      H         7.169000     2.558000     1.247000
    259      H         7.158000     5.248000     0.510000
    260      H         8.640000     4.269000     0.476000
    261      H         6.737000     4.836000    -1.835000
    262      H         8.493000     5.079000    -1.807000
    263      H         7.412000     2.781000    -2.844000
    264      H         8.909000     2.700000    -1.875000
    265      N         4.829000     3.825000     1.550000
    266      C         3.402000     4.090000     1.666000
    267      C         3.025000     5.355000     0.882000
    268      O         3.771000     6.337000     0.841000
    269      C         3.161000     4.308000     3.160000
    270      C         4.517000     4.781000     3.676000
    271      C         5.511000     4.014000     2.817000
    272      H         2.851000     3.229000     1.293000
    273      H         2.366000     5.028000     3.378000
    274      H         2.900000     3.362000     3.642000
    275      H         4.625000     5.858000     3.504000
    276      H         4.653000     4.593000     4.745000
    277      H         6.456000     4.546000     2.690000
    278      H         5.715000     3.023000     3.237000
    279      N         1.778000     5.368000     0.301000
    280      C         1.280000     6.574000    -0.340000
    281      C         0.731000     7.506000     0.758000
    282      O        -0.001000     7.103000     1.664000
    283      C         0.164000     6.075000    -1.254000
    284      C        -0.366000     4.839000    -0.531000
    285      C         0.878000     4.246000     0.114000
    286      H         2.077000     7.068000    -0.905000
    287      H        -0.614000     6.819000    -1.438000
    288      H         0.584000     5.772000    -2.221000
    289      H        -1.081000     5.135000     0.243000
    290      H        -0.871000     4.136000    -1.199000
    291      H         0.657000     3.758000     1.068000
    292      H         1.367000     3.532000    -0.557000
    293      N         1.158000     8.813000     0.624000
    294      C         0.362000     9.887000     1.261000
    295      C        -0.878000    10.272000     0.401000
    296      O        -0.855000     9.813000    -0.786000
    297      C         1.223000    11.138000     1.403000
    298      O         2.426000    10.819000     2.123000
    299      O        -1.772000    10.951000     0.974000
    300      H         1.381000     9.065000    -0.334000
    301      H         0.042000     9.534000     2.248000
    302      H         1.527000    11.532000     0.427000
    303      H         0.707000    11.934000     1.948000
    304      H         2.651000     9.907000     1.852000
 $END

